rehearsal = [[1,1,1,0,1,1,1,0,1,1,1,0,1,1,1], [0,1,1,0,1,1,0,0,1,0,1,1,0,0,0], [1,1,0,1,1,0,1,1,1,1,1,0,0,0,1], [0,1,1,0,0,1,0,1,1,1,1,1,1,1,0], [1,0,0,0,1,0,0,0,0,1,0,0,1,0,1], [0,1,0,1,0,1,1,0,1,1,1,1,1,1,1], [0,1,1,0,0,0,1,1,1,1,1,1,1,1,1], [1,1,1,0,1,1,1,0,1,1,1,0,1,0,0], [1,0,0,1,0,1,1,0,1,1,1,1,0,0,1], [1,1,1,0,1,1,1,1,1,1,1,1,1,1,1], [0,1,1,1,1,1,0,1,1,1,1,0,0,1,0], [0,0,1,1,1,0,0,1,1,1,1,0,1,1,1], [1,1,1,1,1,0,1,1,1,0,1,0,1,1,1], [1,1,0,1,0,1,1,0,1,1,1,1,1,1,0], [1,1,1,1,1,1,1,1,0,1,1,1,0,0,1], [1,1,1,1,0,1,0,1,1,0,0,0,1,1,1], [1,1,1,1,0,0,0,1,1,1,1,1,1,1,1], [1,0,0,1,1,0,1,0,1,1,1,1,0,1,1], [1,1,0,1,1,1,0,1,1,1,1,0,0,1,1], [1,1,0,0,1,1,1,1,1,1,0,1,0,0,0], [1,1,1,1,1,0,0,1,1,1,0,1,1,1,1], [1,1,1,1,0,1,0,0,1,0,1,0,1,1,1], [0,0,1,1,1,1,1,0,0,1,1,1,0,0,0], [0,1,1,1,1,1,1,0,0,0,0,1,1,1,0], [1,1,0,1,0,1,1,0,1,0,0,1,0,0,0], [1,1,0,0,1,1,0,0,1,1,1,1,0,0,1], [1,1,1,1,1,1,1,0,1,1,1,1,1,0,0], [1,1,1,0,1,1,0,0,1,1,1,0,1,1,1], [1,0,1,1,1,1,0,1,0,0,1,0,0,1,0], [1,0,0,1,1,0,1,1,0,1,1,1,1,1,1], [0,1,1,0,1,0,1,1,1,1,1,1,1,0,1], [1,1,1,0,1,1,1,1,1,1,0,0,0,1,1], [1,0,1,0,0,1,1,1,1,1,0,1,1,1,0], [1,1,0,1,1,1,1,1,1,0,1,0,1,1,0], [0,0,1,1,1,0,0,0,1,1,1,1,0,1,1], [0,0,0,1,1,1,0,0,1,1,1,0,0,0,0], [1,1,1,0,1,0,0,0,1,1,1,0,0,1,1], [1,0,0,0,0,1,1,1,0,0,1,0,1,0,1], [1,1,0,1,0,1,1,0,1,1,1,1,1,0,0], [1,1,1,1,0,1,1,1,1,0,1,1,1,1,1], [1,1,1,1,0,1,0,1,0,1,1,0,0,0,1], [0,0,1,1,1,1,1,1,1,1,0,1,1,1,0], [1,1,0,0,0,1,1,0,1,0,1,1,0,1,1], [1,1,1,0,1,0,1,0,1,1,1,0,1,0,0], [1,1,0,1,1,1,0,1,0,1,1,1,1,1,1], [1,1,1,1,1,0,0,0,1,1,0,1,0,0,1], [0,1,1,1,1,1,1,1,0,0,1,1,1,1,1], [1,0,0,1,0,1,0,1,1,1,1,1,1,0,1], [0,1,1,1,1,1,1,1,1,0,0,0,0,1,1], [0,1,0,1,1,1,0,1,0,0,1,1,1,1,1]];
permutations = [8,15,1,9,10,11,6,4,5,14,3,2,7,12,13];